File : Instances/p56
Use 141 s

22063

0 0 1 0 0 0 0 0 1 0 1 1 1 1 0 0 1 0 1 1 0 1 0 1 1 1 1 1 1 1 
18 19 21 27 2 12 21 27 18 28 29 28 13 13 28 18 13 10 16 27 18 16 23 24 10 18 27 19 29 2 19 19 26 16 27 12 8 8 24 16 18 8 12 26 8 26 13 21 19 26 24 16 21 16 8 12 11 26 18 25 29 2 18 8 13 11 23 19 28 25 18 12 19 8 23 23 10 23 8 16 23 2 26 25 29 13 19 2 27 25 28 19 25 25 2 13 11 12 2 28 28 21 25 18 29 24 29 24 27 13 19 29 27 12 11 8 28 25 10 8 26 11 28 19 26 16 2 11 26 28 11 24 25 10 23 8 13 13 28 10 12 27 11 11 25 2 24 21 27 25 24 28 23 28 8 11 2 16 13 13 13 27 10 24 23 27 23 29 13 21 23 8 19 10 26 2 24 10 29 10 2 21 21 19 12 8 11 23 27 21 2 21 12 29 25 12 25 21 10 19 
